c Output_time 26.03.2020 18:08:26_+0100 1585242506760144084
c ** Program information **
c program_name                          "QBRG_debug"
c version                               "0.3.20"
c date                                  "25.3.2020"
c gid_id                                "673970833836058123f633335630c185360d632e"
c author                                "Oliver Kullmann"
c url                                   "https://github.com/OKullmann/oklibrary/blob/master/Satisfiability/Transformers/Generators/Random/QBRG.cpp"
c ** Machine information **
c machine_name                          "chyna-Lenovo-G50-70"
c bogomips                              3791.08
c ** Compilation information **
c compiler_version                      "g++ 7.5.0"
c compilation_date                      "Mar_26_2020 11:16:30"
c compilation_options                   "--std=c++17 -pedantic -fmax-errors=5 -Wall -Wextra -g -D_GLIBCXX_DEBUG"
c NDEBUG                                0
c OPTIMIZE                              0
c ** Parameters **
c command-line                          "./QBRG_debug" "a40 40" "120*1,1|2-2,1" "" "1,t" ""
c output                                "QuBlRaGe_80_120_1585242506759997336.qdimacs"
c options                               "filtered,renamed"
c num_quantifier_blocks                 2
c  quantifier_blocks                    1:a1-40 2:e41-80
c num_clause-blocks                     1
c  clause-blocks                        120 * {1-40,1,1/2} | {41-80,1,1/2}
c num_e-seeds                           23+2=25
c  e-seeds                              1 0 1 0 3 80 2 40 0 40 1 120 2 1 1 1 1 2 2 2 1 1 2 1 1585242506759997031
p cnf 74 120
a 1 2 3 4 5 6 7 8 9 10 11 12 13 14 15 16 17 18 19 20 21 22 23 24 25 26 27 28 29 30 31 32 33 34 35 36 37 0
e 38 39 40 41 42 43 44 45 46 47 48 49 50 51 52 53 54 55 56 57 58 59 60 61 62 63 64 65 66 67 68 69 70 71 72 73 74 0
-14 -38 0
-7 38 0
-15 38 0
21 38 0
-29 38 0
3 -39 0
24 -39 0
34 -39 0
9 -40 0
-11 -40 0
35 -40 0
-36 -41 0
-11 41 0
-20 41 0
24 41 0
3 -42 0
6 -42 0
23 -42 0
17 42 0
28 42 0
31 42 0
-19 -43 0
-19 43 0
23 -44 0
37 -44 0
1 44 0
15 44 0
5 -45 0
35 -45 0
-6 46 0
10 46 0
20 -47 0
25 -47 0
-32 -47 0
-11 47 0
-10 -48 0
18 -48 0
-30 -48 0
-8 48 0
-37 48 0
-16 -49 0
2 49 0
8 49 0
-15 49 0
20 -50 0
-25 -50 0
5 50 0
8 -51 0
-12 -51 0
23 -51 0
-35 -51 0
11 51 0
-14 -52 0
32 -52 0
-33 52 0
-34 52 0
-7 -53 0
-19 -53 0
25 -53 0
-28 53 0
-12 54 0
11 -55 0
13 55 0
-24 55 0
13 -56 0
7 57 0
-11 57 0
27 57 0
-35 57 0
-24 58 0
-15 -59 0
15 59 0
35 59 0
-16 -60 0
-26 -60 0
-24 -61 0
3 61 0
31 61 0
25 -62 0
22 -63 0
5 63 0
-10 63 0
20 63 0
32 63 0
33 63 0
-20 -64 0
32 -64 0
1 64 0
4 64 0
-11 64 0
4 65 0
-5 65 0
22 65 0
35 65 0
8 -66 0
34 -66 0
1 66 0
-36 66 0
8 -67 0
-5 67 0
2 -68 0
14 68 0
9 -69 0
-3 69 0
25 69 0
-30 69 0
31 69 0
-34 69 0
-18 -70 0
-32 -71 0
-35 -71 0
-8 71 0
6 -72 0
-10 -72 0
-21 72 0
-18 -73 0
-9 73 0
-10 -74 0
18 -74 0
37 74 0
